p edge 150 3353
e 1 2
e 1 8
e 1 12
e 1 13
e 1 14
e 1 17
e 1 22
e 1 28
e 1 41
e 1 43
e 1 44
e 1 45
e 1 46
e 1 58
e 1 59
e 1 60
e 1 63
e 1 64
e 1 66
e 1 68
e 1 74
e 1 79
e 1 81
e 1 82
e 1 84
e 1 89
e 1 90
e 1 93
e 1 97
e 1 98
e 1 99
e 1 113
e 1 115
e 1 119
e 1 122
e 1 129
e 1 133
e 1 134
e 1 138
e 1 139
e 1 141
e 1 147
e 1 148
e 1 150
e 2 5
e 2 9
e 2 11
e 2 16
e 2 17
e 2 19
e 2 20
e 2 28
e 2 29
e 2 33
e 2 36
e 2 37
e 2 39
e 2 40
e 2 42
e 2 43
e 2 45
e 2 48
e 2 54
e 2 57
e 2 58
e 2 74
e 2 75
e 2 77
e 2 84
e 2 86
e 2 88
e 2 90
e 2 95
e 2 97
e 2 99
e 2 100
e 2 103
e 2 112
e 2 113
e 2 116
e 2 127
e 2 128
e 2 129
e 2 130
e 2 134
e 2 139
e 2 143
e 3 4
e 3 13
e 3 14
e 3 17
e 3 22
e 3 23
e 3 27
e 3 28
e 3 30
e 3 31
e 3 33
e 3 37
e 3 40
e 3 43
e 3 45
e 3 52
e 3 58
e 3 60
e 3 65
e 3 72
e 3 74
e 3 75
e 3 85
e 3 93
e 3 96
e 3 97
e 3 102
e 3 106
e 3 107
e 3 109
e 3 116
e 3 117
e 3 118
e 3 120
e 3 121
e 3 122
e 3 123
e 3 125
e 3 128
e 3 130
e 3 133
e 3 135
e 3 138
e 3 142
e 3 146
e 3 148
e 3 150
e 4 5
e 4 7
e 4 9
e 4 13
e 4 15
e 4 23
e 4 26
e 4 28
e 4 31
e 4 32
e 4 33
e 4 34
e 4 36
e 4 38
e 4 43
e 4 45
e 4 46
e 4 47
e 4 57
e 4 59
e 4 60
e 4 66
e 4 68
e 4 70
e 4 72
e 4 73
e 4 74
e 4 77
e 4 78
e 4 80
e 4 87
e 4 92
e 4 95
e 4 96
e 4 99
e 4 102
e 4 103
e 4 104
e 4 105
e 4 114
e 4 116
e 4 120
e 4 121
e 4 125
e 4 129
e 4 135
e 4 136
e 4 137
e 4 142
e 4 143
e 4 146
e 4 149
e 4 150
e 5 6
e 5 8
e 5 13
e 5 14
e 5 15
e 5 20
e 5 25
e 5 31
e 5 32
e 5 35
e 5 36
e 5 37
e 5 41
e 5 46
e 5 49
e 5 51
e 5 53
e 5 55
e 5 57
e 5 59
e 5 62
e 5 63
e 5 66
e 5 67
e 5 71
e 5 76
e 5 78
e 5 81
e 5 83
e 5 84
e 5 86
e 5 88
e 5 89
e 5 94
e 5 98
e 5 100
e 5 109
e 5 110
e 5 111
e 5 113
e 5 116
e 5 124
e 5 129
e 5 135
e 5 136
e 5 142
e 5 144
e 5 147
e 5 149
e 6 10
e 6 11
e 6 12
e 6 15
e 6 16
e 6 25
e 6 27
e 6 28
e 6 31
e 6 39
e 6 41
e 6 50
e 6 52
e 6 54
e 6 59
e 6 63
e 6 67
e 6 73
e 6 75
e 6 80
e 6 81
e 6 85
e 6 87
e 6 90
e 6 92
e 6 94
e 6 96
e 6 100
e 6 113
e 6 119
e 6 123
e 6 130
e 6 131
e 6 132
e 6 135
e 6 141
e 6 146
e 6 148
e 6 150
e 7 9
e 7 13
e 7 19
e 7 26
e 7 28
e 7 29
e 7 32
e 7 33
e 7 34
e 7 38
e 7 41
e 7 43
e 7 48
e 7 50
e 7 51
e 7 53
e 7 58
e 7 60
e 7 62
e 7 66
e 7 69
e 7 71
e 7 72
e 7 87
e 7 89
e 7 90
e 7 91
e 7 93
e 7 99
e 7 100
e 7 105
e 7 106
e 7 109
e 7 110
e 7 113
e 7 118
e 7 122
e 7 127
e 7 131
e 7 139
e 7 144
e 7 146
e 7 150
e 8 14
e 8 16
e 8 18
e 8 25
e 8 27
e 8 29
e 8 30
e 8 33
e 8 35
e 8 37
e 8 43
e 8 49
e 8 55
e 8 59
e 8 61
e 8 63
e 8 64
e 8 65
e 8 71
e 8 74
e 8 75
e 8 81
e 8 85
e 8 87
e 8 88
e 8 91
e 8 95
e 8 99
e 8 102
e 8 104
e 8 108
e 8 110
e 8 111
e 8 112
e 8 115
e 8 119
e 8 120
e 8 131
e 8 139
e 8 140
e 8 141
e 8 146
e 9 12
e 9 13
e 9 24
e 9 37
e 9 38
e 9 46
e 9 47
e 9 50
e 9 53
e 9 55
e 9 56
e 9 59
e 9 63
e 9 64
e 9 66
e 9 76
e 9 80
e 9 85
e 9 87
e 9 88
e 9 89
e 9 91
e 9 92
e 9 105
e 9 113
e 9 117
e 9 121
e 9 123
e 9 124
e 9 132
e 9 136
e 9 137
e 9 138
e 9 142
e 10 14
e 10 17
e 10 20
e 10 21
e 10 23
e 10 34
e 10 37
e 10 43
e 10 44
e 10 45
e 10 49
e 10 53
e 10 54
e 10 57
e 10 58
e 10 59
e 10 60
e 10 66
e 10 67
e 10 73
e 10 74
e 10 77
e 10 87
e 10 90
e 10 101
e 10 102
e 10 103
e 10 113
e 10 117
e 10 119
e 10 123
e 10 124
e 10 127
e 10 139
e 10 141
e 10 144
e 10 145
e 10 147
e 11 14
e 11 16
e 11 18
e 11 19
e 11 22
e 11 24
e 11 29
e 11 31
e 11 32
e 11 33
e 11 39
e 11 41
e 11 49
e 11 52
e 11 55
e 11 56
e 11 58
e 11 59
e 11 61
e 11 63
e 11 66
e 11 70
e 11 71
e 11 76
e 11 78
e 11 84
e 11 87
e 11 89
e 11 93
e 11 98
e 11 105
e 11 108
e 11 114
e 11 116
e 11 121
e 11 123
e 11 129
e 11 135
e 11 136
e 11 137
e 11 139
e 11 143
e 11 147
e 11 150
e 12 17
e 12 21
e 12 24
e 12 25
e 12 29
e 12 30
e 12 34
e 12 39
e 12 40
e 12 44
e 12 47
e 12 50
e 12 51
e 12 54
e 12 55
e 12 59
e 12 62
e 12 66
e 12 68
e 12 77
e 12 82
e 12 85
e 12 98
e 12 99
e 12 102
e 12 103
e 12 105
e 12 107
e 12 112
e 12 113
e 12 118
e 12 127
e 12 129
e 12 130
e 12 132
e 12 133
e 12 136
e 12 138
e 12 140
e 13 16
e 13 22
e 13 23
e 13 24
e 13 31
e 13 33
e 13 39
e 13 44
e 13 45
e 13 54
e 13 60
e 13 61
e 13 66
e 13 71
e 13 74
e 13 76
e 13 77
e 13 82
e 13 84
e 13 88
e 13 90
e 13 92
e 13 94
e 13 99
e 13 100
e 13 104
e 13 111
e 13 113
e 13 118
e 13 119
e 13 123
e 13 124
e 13 130
e 13 132
e 13 148
e 14 17
e 14 22
e 14 23
e 14 26
e 14 27
e 14 39
e 14 44
e 14 45
e 14 47
e 14 49
e 14 53
e 14 60
e 14 62
e 14 65
e 14 70
e 14 74
e 14 78
e 14 85
e 14 87
e 14 91
e 14 92
e 14 96
e 14 97
e 14 99
e 14 104
e 14 107
e 14 109
e 14 110
e 14 113
e 14 115
e 14 119
e 14 124
e 14 132
e 14 133
e 14 135
e 14 137
e 14 147
e 14 148
e 14 150
e 15 17
e 15 19
e 15 20
e 15 24
e 15 27
e 15 28
e 15 30
e 15 35
e 15 36
e 15 39
e 15 41
e 15 44
e 15 46
e 15 50
e 15 51
e 15 56
e 15 58
e 15 63
e 15 65
e 15 69
e 15 70
e 15 71
e 15 72
e 15 74
e 15 78
e 15 80
e 15 89
e 15 92
e 15 95
e 15 97
e 15 98
e 15 99
e 15 100
e 15 103
e 15 104
e 15 106
e 15 107
e 15 109
e 15 111
e 15 113
e 15 114
e 15 116
e 15 117
e 15 118
e 15 122
e 15 128
e 15 140
e 15 144
e 15 145
e 15 148
e 15 149
e 15 150
e 16 18
e 16 20
e 16 22
e 16 23
e 16 26
e 16 27
e 16 28
e 16 29
e 16 31
e 16 34
e 16 36
e 16 38
e 16 45
e 16 46
e 16 47
e 16 56
e 16 61
e 16 62
e 16 70
e 16 71
e 16 74
e 16 75
e 16 78
e 16 84
e 16 88
e 16 89
e 16 91
e 16 94
e 16 96
e 16 100
e 16 106
e 16 108
e 16 109
e 16 117
e 16 124
e 16 126
e 16 127
e 16 130
e 16 131
e 16 132
e 16 140
e 16 141
e 16 142
e 16 146
e 16 148
e 17 20
e 17 23
e 17 26
e 17 31
e 17 33
e 17 34
e 17 35
e 17 36
e 17 45
e 17 46
e 17 56
e 17 66
e 17 73
e 17 75
e 17 77
e 17 78
e 17 87
e 17 88
e 17 96
e 17 100
e 17 102
e 17 104
e 17 112
e 17 115
e 17 117
e 17 119
e 17 120
e 17 123
e 17 124
e 17 125
e 17 132
e 17 144
e 17 150
e 18 24
e 18 30
e 18 35
e 18 38
e 18 46
e 18 47
e 18 55
e 18 57
e 18 62
e 18 63
e 18 66
e 18 67
e 18 72
e 18 76
e 18 77
e 18 78
e 18 80
e 18 81
e 18 82
e 18 84
e 18 88
e 18 89
e 18 90
e 18 95
e 18 96
e 18 98
e 18 100
e 18 101
e 18 105
e 18 109
e 18 111
e 18 116
e 18 118
e 18 124
e 18 126
e 18 133
e 18 136
e 18 137
e 18 143
e 18 145
e 18 146
e 18 149
e 19 27
e 19 29
e 19 31
e 19 32
e 19 33
e 19 41
e 19 44
e 19 56
e 19 58
e 19 65
e 19 80
e 19 82
e 19 83
e 19 87
e 19 88
e 19 90
e 19 95
e 19 96
e 19 97
e 19 100
e 19 105
e 19 106
e 19 109
e 19 110
e 19 117
e 19 118
e 19 119
e 19 120
e 19 131
e 19 136
e 19 137
e 19 141
e 19 144
e 19 145
e 19 147
e 20 25
e 20 29
e 20 31
e 20 36
e 20 37
e 20 39
e 20 41
e 20 53
e 20 54
e 20 57
e 20 58
e 20 60
e 20 61
e 20 64
e 20 68
e 20 80
e 20 84
e 20 86
e 20 89
e 20 93
e 20 95
e 20 99
e 20 101
e 20 104
e 20 108
e 20 109
e 20 114
e 20 116
e 20 118
e 20 120
e 20 126
e 20 130
e 20 131
e 20 133
e 20 134
e 20 137
e 20 142
e 20 143
e 20 148
e 20 150
e 21 33
e 21 36
e 21 37
e 21 39
e 21 40
e 21 41
e 21 43
e 21 44
e 21 46
e 21 48
e 21 57
e 21 64
e 21 65
e 21 72
e 21 81
e 21 82
e 21 84
e 21 85
e 21 86
e 21 88
e 21 95
e 21 96
e 21 99
e 21 101
e 21 104
e 21 110
e 21 112
e 21 113
e 21 117
e 21 118
e 21 119
e 21 120
e 21 122
e 21 123
e 21 126
e 21 135
e 21 138
e 21 141
e 21 149
e 22 27
e 22 28
e 22 30
e 22 32
e 22 33
e 22 34
e 22 36
e 22 37
e 22 40
e 22 43
e 22 44
e 22 45
e 22 49
e 22 52
e 22 53
e 22 55
e 22 56
e 22 57
e 22 58
e 22 60
e 22 63
e 22 65
e 22 72
e 22 75
e 22 78
e 22 88
e 22 89
e 22 90
e 22 91
e 22 92
e 22 93
e 22 94
e 22 95
e 22 99
e 22 102
e 22 107
e 22 109
e 22 110
e 22 111
e 22 118
e 22 124
e 22 126
e 22 130
e 22 136
e 22 138
e 22 141
e 22 150
e 23 25
e 23 29
e 23 31
e 23 32
e 23 36
e 23 39
e 23 40
e 23 41
e 23 43
e 23 49
e 23 51
e 23 57
e 23 59
e 23 60
e 23 61
e 23 62
e 23 65
e 23 66
e 23 69
e 23 73
e 23 78
e 23 81
e 23 83
e 23 84
e 23 88
e 23 89
e 23 90
e 23 91
e 23 103
e 23 104
e 23 105
e 23 107
e 23 109
e 23 110
e 23 112
e 23 113
e 23 114
e 23 115
e 23 119
e 23 121
e 23 124
e 23 126
e 23 127
e 23 129
e 23 131
e 23 132
e 23 138
e 23 140
e 23 146
e 23 148
e 24 26
e 24 31
e 24 34
e 24 36
e 24 39
e 24 43
e 24 51
e 24 52
e 24 56
e 24 57
e 24 58
e 24 63
e 24 65
e 24 69
e 24 70
e 24 79
e 24 82
e 24 84
e 24 87
e 24 88
e 24 90
e 24 91
e 24 92
e 24 96
e 24 97
e 24 99
e 24 102
e 24 105
e 24 108
e 24 110
e 24 111
e 24 114
e 24 117
e 24 121
e 24 126
e 24 129
e 24 130
e 24 131
e 24 135
e 24 136
e 24 139
e 24 141
e 24 142
e 24 145
e 24 148
e 24 149
e 25 27
e 25 31
e 25 32
e 25 34
e 25 37
e 25 39
e 25 45
e 25 47
e 25 51
e 25 52
e 25 55
e 25 59
e 25 67
e 25 68
e 25 69
e 25 70
e 25 71
e 25 73
e 25 81
e 25 82
e 25 84
e 25 87
e 25 89
e 25 92
e 25 94
e 25 96
e 25 101
e 25 102
e 25 107
e 25 109
e 25 111
e 25 114
e 25 119
e 25 120
e 25 124
e 25 128
e 25 130
e 25 134
e 25 140
e 25 142
e 25 146
e 26 27
e 26 33
e 26 34
e 26 35
e 26 36
e 26 44
e 26 50
e 26 51
e 26 52
e 26 57
e 26 59
e 26 61
e 26 64
e 26 76
e 26 79
e 26 87
e 26 99
e 26 101
e 26 104
e 26 105
e 26 107
e 26 111
e 26 122
e 26 124
e 26 131
e 26 135
e 26 137
e 26 140
e 26 141
e 26 142
e 26 144
e 26 147
e 27 32
e 27 34
e 27 35
e 27 36
e 27 37
e 27 42
e 27 44
e 27 47
e 27 50
e 27 51
e 27 52
e 27 70
e 27 72
e 27 78
e 27 80
e 27 88
e 27 94
e 27 95
e 27 98
e 27 99
e 27 103
e 27 104
e 27 105
e 27 107
e 27 109
e 27 110
e 27 111
e 27 116
e 27 120
e 27 130
e 27 134
e 27 138
e 27 140
e 27 142
e 27 145
e 27 148
e 27 150
e 28 29
e 28 31
e 28 32
e 28 35
e 28 40
e 28 45
e 28 46
e 28 47
e 28 48
e 28 59
e 28 60
e 28 63
e 28 73
e 28 82
e 28 87
e 28 89
e 28 93
e 28 99
e 28 104
e 28 107
e 28 111
e 28 113
e 28 115
e 28 116
e 28 117
e 28 121
e 28 129
e 28 134
e 28 137
e 28 139
e 28 140
e 28 144
e 28 147
e 28 149
e 29 32
e 29 42
e 29 43
e 29 44
e 29 47
e 29 55
e 29 58
e 29 63
e 29 65
e 29 70
e 29 74
e 29 75
e 29 79
e 29 89
e 29 92
e 29 93
e 29 94
e 29 106
e 29 107
e 29 108
e 29 109
e 29 113
e 29 116
e 29 118
e 29 119
e 29 139
e 30 34
e 30 35
e 30 36
e 30 37
e 30 45
e 30 48
e 30 54
e 30 62
e 30 64
e 30 71
e 30 77
e 30 79
e 30 81
e 30 86
e 30 89
e 30 90
e 30 93
e 30 95
e 30 96
e 30 97
e 30 99
e 30 103
e 30 104
e 30 109
e 30 112
e 30 113
e 30 117
e 30 119
e 30 120
e 30 121
e 30 123
e 30 127
e 30 128
e 30 133
e 30 134
e 30 142
e 30 143
e 30 147
e 30 150
e 31 32
e 31 33
e 31 35
e 31 36
e 31 39
e 31 43
e 31 46
e 31 48
e 31 55
e 31 62
e 31 67
e 31 76
e 31 80
e 31 83
e 31 86
e 31 89
e 31 92
e 31 93
e 31 104
e 31 107
e 31 108
e 31 109
e 31 115
e 31 118
e 31 120
e 31 123
e 31 125
e 31 129
e 31 132
e 31 134
e 31 137
e 31 140
e 31 141
e 31 148
e 32 38
e 32 40
e 32 41
e 32 43
e 32 45
e 32 50
e 32 52
e 32 62
e 32 65
e 32 66
e 32 69
e 32 73
e 32 76
e 32 80
e 32 81
e 32 83
e 32 85
e 32 87
e 32 91
e 32 94
e 32 96
e 32 99
e 32 107
e 32 110
e 32 120
e 32 121
e 32 122
e 32 123
e 32 126
e 32 127
e 32 132
e 32 134
e 32 136
e 32 137
e 32 140
e 32 141
e 32 146
e 32 150
e 33 38
e 33 40
e 33 44
e 33 46
e 33 47
e 33 48
e 33 50
e 33 52
e 33 53
e 33 59
e 33 60
e 33 63
e 33 64
e 33 65
e 33 71
e 33 76
e 33 81
e 33 82
e 33 89
e 33 94
e 33 95
e 33 96
e 33 97
e 33 99
e 33 107
e 33 118
e 33 119
e 33 120
e 33 122
e 33 123
e 33 129
e 33 131
e 33 133
e 33 136
e 33 138
e 33 143
e 33 144
e 33 148
e 34 40
e 34 49
e 34 54
e 34 56
e 34 58
e 34 61
e 34 62
e 34 63
e 34 69
e 34 71
e 34 75
e 34 77
e 34 83
e 34 86
e 34 91
e 34 98
e 34 102
e 34 104
e 34 105
e 34 110
e 34 112
e 34 113
e 34 115
e 34 123
e 34 125
e 34 126
e 34 127
e 34 136
e 34 137
e 34 139
e 35 37
e 35 38
e 35 39
e 35 45
e 35 46
e 35 47
e 35 48
e 35 56
e 35 57
e 35 64
e 35 65
e 35 66
e 35 67
e 35 70
e 35 72
e 35 81
e 35 82
e 35 91
e 35 93
e 35 94
e 35 96
e 35 104
e 35 106
e 35 107
e 35 109
e 35 115
e 35 117
e 35 119
e 35 132
e 35 135
e 35 136
e 35 137
e 35 139
e 35 142
e 35 144
e 35 148
e 36 44
e 36 48
e 36 49
e 36 51
e 36 55
e 36 60
e 36 62
e 36 63
e 36 70
e 36 72
e 36 73
e 36 84
e 36 87
e 36 88
e 36 97
e 36 105
e 36 106
e 36 107
e 36 110
e 36 112
e 36 113
e 36 122
e 36 124
e 36 126
e 36 127
e 36 128
e 36 134
e 36 135
e 36 137
e 36 140
e 36 144
e 37 40
e 37 42
e 37 45
e 37 49
e 37 55
e 37 59
e 37 63
e 37 71
e 37 72
e 37 73
e 37 74
e 37 83
e 37 84
e 37 85
e 37 88
e 37 89
e 37 92
e 37 98
e 37 99
e 37 100
e 37 104
e 37 107
e 37 113
e 37 117
e 37 119
e 37 124
e 37 125
e 37 128
e 37 129
e 37 138
e 37 139
e 37 147
e 38 40
e 38 41
e 38 42
e 38 43
e 38 44
e 38 46
e 38 47
e 38 49
e 38 51
e 38 56
e 38 60
e 38 61
e 38 65
e 38 72
e 38 76
e 38 82
e 38 85
e 38 95
e 38 98
e 38 103
e 38 104
e 38 105
e 38 109
e 38 112
e 38 121
e 38 125
e 38 126
e 38 127
e 38 128
e 38 131
e 38 133
e 38 136
e 38 137
e 38 140
e 38 143
e 38 148
e 38 149
e 39 44
e 39 46
e 39 48
e 39 51
e 39 53
e 39 54
e 39 55
e 39 57
e 39 59
e 39 68
e 39 69
e 39 71
e 39 72
e 39 74
e 39 76
e 39 77
e 39 82
e 39 84
e 39 86
e 39 89
e 39 91
e 39 92
e 39 95
e 39 97
e 39 98
e 39 99
e 39 100
e 39 101
e 39 104
e 39 105
e 39 114
e 39 120
e 39 126
e 39 127
e 39 128
e 39 130
e 39 131
e 39 134
e 39 135
e 39 140
e 39 143
e 39 147
e 40 43
e 40 48
e 40 49
e 40 52
e 40 58
e 40 60
e 40 62
e 40 64
e 40 70
e 40 72
e 40 83
e 40 87
e 40 90
e 40 91
e 40 94
e 40 96
e 40 100
e 40 104
e 40 110
e 40 111
e 40 112
e 40 113
e 40 119
e 40 120
e 40 123
e 40 127
e 40 130
e 40 135
e 40 143
e 40 144
e 40 145
e 40 146
e 41 46
e 41 55
e 41 61
e 41 62
e 41 64
e 41 65
e 41 66
e 41 70
e 41 71
e 41 72
e 41 75
e 41 77
e 41 78
e 41 79
e 41 83
e 41 84
e 41 90
e 41 100
e 41 101
e 41 103
e 41 107
e 41 111
e 41 113
e 41 116
e 41 117
e 41 133
e 41 134
e 41 136
e 41 137
e 41 140
e 41 144
e 41 149
e 42 43
e 42 45
e 42 46
e 42 48
e 42 49
e 42 55
e 42 61
e 42 65
e 42 67
e 42 68
e 42 69
e 42 70
e 42 71
e 42 73
e 42 75
e 42 77
e 42 81
e 42 82
e 42 84
e 42 86
e 42 87
e 42 91
e 42 93
e 42 96
e 42 99
e 42 106
e 42 107
e 42 108
e 42 112
e 42 113
e 42 114
e 42 123
e 42 124
e 42 127
e 42 131
e 42 137
e 42 140
e 42 141
e 43 44
e 43 45
e 43 50
e 43 53
e 43 54
e 43 55
e 43 57
e 43 59
e 43 72
e 43 75
e 43 89
e 43 90
e 43 93
e 43 103
e 43 104
e 43 105
e 43 106
e 43 109
e 43 111
e 43 112
e 43 113
e 43 114
e 43 117
e 43 118
e 43 121
e 43 122
e 43 123
e 43 124
e 43 125
e 43 126
e 43 133
e 43 134
e 43 139
e 43 144
e 43 146
e 43 150
e 44 54
e 44 55
e 44 56
e 44 67
e 44 77
e 44 78
e 44 86
e 44 87
e 44 93
e 44 94
e 44 97
e 44 109
e 44 113
e 44 114
e 44 116
e 44 128
e 44 137
e 44 141
e 44 143
e 44 145
e 44 150
e 45 47
e 45 54
e 45 57
e 45 58
e 45 59
e 45 60
e 45 64
e 45 65
e 45 67
e 45 75
e 45 78
e 45 86
e 45 89
e 45 94
e 45 96
e 45 98
e 45 99
e 45 102
e 45 104
e 45 109
e 45 111
e 45 113
e 45 116
e 45 122
e 45 141
e 45 144
e 45 148
e 45 150
e 46 49
e 46 50
e 46 51
e 46 53
e 46 56
e 46 58
e 46 60
e 46 61
e 46 66
e 46 72
e 46 75
e 46 77
e 46 80
e 46 85
e 46 87
e 46 91
e 46 98
e 46 105
e 46 109
e 46 113
e 46 124
e 46 125
e 46 127
e 46 131
e 46 132
e 46 143
e 46 148
e 46 149
e 46 150
e 47 58
e 47 59
e 47 68
e 47 73
e 47 75
e 47 80
e 47 82
e 47 85
e 47 91
e 47 93
e 47 97
e 47 98
e 47 99
e 47 104
e 47 105
e 47 107
e 47 113
e 47 114
e 47 122
e 47 124
e 47 134
e 47 135
e 47 141
e 47 145
e 48 55
e 48 64
e 48 65
e 48 71
e 48 75
e 48 77
e 48 78
e 48 80
e 48 87
e 48 99
e 48 100
e 48 101
e 48 103
e 48 106
e 48 118
e 48 120
e 48 125
e 48 126
e 48 130
e 48 135
e 48 139
e 48 141
e 49 54
e 49 57
e 49 69
e 49 72
e 49 75
e 49 79
e 49 85
e 49 86
e 49 93
e 49 95
e 49 99
e 49 101
e 49 103
e 49 106
e 49 112
e 49 116
e 49 117
e 49 120
e 49 121
e 49 122
e 49 124
e 49 131
e 49 133
e 49 134
e 49 139
e 49 143
e 49 144
e 49 145
e 49 149
e 49 150
e 50 54
e 50 55
e 50 56
e 50 61
e 50 65
e 50 70
e 50 72
e 50 81
e 50 82
e 50 89
e 50 92
e 50 95
e 50 96
e 50 98
e 50 103
e 50 107
e 50 108
e 50 109
e 50 110
e 50 111
e 50 115
e 50 120
e 50 122
e 50 124
e 50 125
e 50 127
e 50 137
e 50 138
e 50 143
e 50 144
e 50 146
e 50 148
e 50 149
e 51 55
e 51 75
e 51 80
e 51 81
e 51 86
e 51 87
e 51 94
e 51 96
e 51 97
e 51 99
e 51 105
e 51 110
e 51 119
e 51 123
e 51 131
e 51 132
e 51 137
e 51 138
e 51 145
e 51 147
e 52 56
e 52 58
e 52 66
e 52 73
e 52 75
e 52 76
e 52 78
e 52 80
e 52 81
e 52 82
e 52 85
e 52 87
e 52 88
e 52 94
e 52 99
e 52 102
e 52 103
e 52 105
e 52 106
e 52 109
e 52 114
e 52 115
e 52 120
e 52 121
e 52 124
e 52 131
e 52 132
e 52 134
e 52 138
e 52 142
e 52 144
e 52 146
e 52 150
e 53 56
e 53 59
e 53 62
e 53 64
e 53 69
e 53 75
e 53 87
e 53 92
e 53 97
e 53 98
e 53 99
e 53 102
e 53 103
e 53 105
e 53 109
e 53 116
e 53 125
e 53 128
e 53 131
e 53 132
e 53 133
e 53 134
e 53 135
e 53 138
e 53 143
e 53 145
e 53 146
e 54 65
e 54 69
e 54 74
e 54 77
e 54 80
e 54 85
e 54 87
e 54 89
e 54 92
e 54 94
e 54 95
e 54 100
e 54 103
e 54 105
e 54 108
e 54 120
e 54 127
e 54 129
e 54 133
e 54 134
e 54 135
e 54 138
e 54 139
e 54 142
e 54 144
e 54 150
e 55 61
e 55 64
e 55 65
e 55 71
e 55 72
e 55 73
e 55 75
e 55 77
e 55 79
e 55 82
e 55 85
e 55 90
e 55 95
e 55 96
e 55 97
e 55 104
e 55 111
e 55 114
e 55 116
e 55 117
e 55 118
e 55 120
e 55 122
e 55 129
e 55 135
e 55 141
e 55 142
e 55 145
e 55 148
e 55 149
e 55 150
e 56 59
e 56 63
e 56 65
e 56 66
e 56 71
e 56 72
e 56 74
e 56 75
e 56 76
e 56 77
e 56 79
e 56 81
e 56 86
e 56 92
e 56 93
e 56 94
e 56 95
e 56 99
e 56 101
e 56 102
e 56 105
e 56 106
e 56 110
e 56 114
e 56 115
e 56 116
e 56 118
e 56 121
e 56 123
e 56 128
e 56 129
e 56 133
e 56 136
e 56 147
e 56 148
e 57 58
e 57 64
e 57 68
e 57 69
e 57 73
e 57 78
e 57 86
e 57 94
e 57 96
e 57 101
e 57 105
e 57 108
e 57 113
e 57 115
e 57 116
e 57 117
e 57 118
e 57 120
e 57 121
e 57 126
e 57 130
e 57 132
e 57 133
e 57 135
e 57 136
e 57 143
e 57 148
e 57 149
e 58 61
e 58 63
e 58 66
e 58 72
e 58 77
e 58 78
e 58 81
e 58 91
e 58 92
e 58 93
e 58 96
e 58 97
e 58 98
e 58 100
e 58 102
e 58 107
e 58 111
e 58 116
e 58 118
e 58 119
e 58 121
e 58 123
e 58 124
e 58 127
e 58 128
e 58 130
e 58 136
e 58 137
e 58 138
e 58 140
e 58 146
e 59 60
e 59 63
e 59 69
e 59 71
e 59 74
e 59 77
e 59 78
e 59 81
e 59 88
e 59 90
e 59 94
e 59 95
e 59 96
e 59 97
e 59 105
e 59 107
e 59 109
e 59 114
e 59 115
e 59 118
e 59 119
e 59 120
e 59 123
e 59 129
e 59 136
e 59 142
e 60 62
e 60 65
e 60 66
e 60 71
e 60 76
e 60 78
e 60 79
e 60 80
e 60 81
e 60 84
e 60 90
e 60 91
e 60 92
e 60 93
e 60 102
e 60 103
e 60 104
e 60 108
e 60 110
e 60 111
e 60 114
e 60 119
e 60 123
e 60 127
e 60 128
e 60 129
e 60 131
e 60 132
e 60 133
e 60 138
e 60 139
e 60 141
e 60 145
e 60 148
e 60 149
e 60 150
e 61 64
e 61 68
e 61 70
e 61 71
e 61 80
e 61 81
e 61 86
e 61 89
e 61 93
e 61 96
e 61 97
e 61 104
e 61 105
e 61 113
e 61 114
e 61 115
e 61 118
e 61 123
e 61 125
e 61 126
e 61 133
e 61 135
e 61 140
e 61 144
e 61 145
e 61 146
e 61 150
e 62 65
e 62 67
e 62 74
e 62 76
e 62 79
e 62 80
e 62 90
e 62 95
e 62 97
e 62 99
e 62 101
e 62 104
e 62 107
e 62 108
e 62 113
e 62 114
e 62 125
e 62 128
e 62 130
e 62 132
e 62 133
e 62 142
e 62 143
e 62 147
e 62 149
e 63 64
e 63 65
e 63 69
e 63 73
e 63 77
e 63 80
e 63 84
e 63 95
e 63 100
e 63 105
e 63 109
e 63 122
e 63 123
e 63 124
e 63 127
e 63 134
e 63 139
e 63 140
e 63 144
e 63 145
e 63 148
e 63 149
e 63 150
e 64 72
e 64 73
e 64 76
e 64 81
e 64 89
e 64 93
e 64 98
e 64 99
e 64 104
e 64 105
e 64 106
e 64 107
e 64 109
e 64 112
e 64 115
e 64 117
e 64 120
e 64 125
e 64 128
e 64 131
e 64 133
e 64 137
e 64 146
e 64 150
e 65 68
e 65 70
e 65 71
e 65 78
e 65 80
e 65 81
e 65 87
e 65 92
e 65 97
e 65 100
e 65 103
e 65 104
e 65 106
e 65 107
e 65 109
e 65 114
e 65 120
e 65 122
e 65 126
e 65 127
e 65 129
e 65 137
e 65 138
e 65 140
e 65 141
e 65 142
e 65 145
e 65 149
e 66 68
e 66 73
e 66 77
e 66 78
e 66 83
e 66 87
e 66 88
e 66 90
e 66 92
e 66 97
e 66 102
e 66 106
e 66 107
e 66 109
e 66 112
e 66 115
e 66 117
e 66 127
e 66 133
e 66 139
e 66 144
e 67 71
e 67 73
e 67 74
e 67 81
e 67 82
e 67 83
e 67 87
e 67 89
e 67 93
e 67 95
e 67 97
e 67 98
e 67 101
e 67 104
e 67 105
e 67 108
e 67 113
e 67 114
e 67 117
e 67 123
e 67 126
e 67 131
e 67 132
e 67 136
e 67 139
e 67 143
e 67 149
e 68 73
e 68 75
e 68 80
e 68 90
e 68 95
e 68 99
e 68 102
e 68 104
e 68 107
e 68 109
e 68 111
e 68 119
e 68 120
e 68 125
e 68 126
e 68 127
e 68 128
e 68 130
e 68 132
e 68 134
e 68 135
e 68 137
e 68 140
e 68 142
e 68 147
e 69 71
e 69 72
e 69 85
e 69 89
e 69 90
e 69 93
e 69 94
e 69 101
e 69 102
e 69 111
e 69 112
e 69 113
e 69 123
e 69 125
e 69 128
e 69 130
e 69 132
e 69 133
e 69 141
e 69 145
e 70 85
e 70 86
e 70 95
e 70 109
e 70 112
e 70 113
e 70 115
e 70 116
e 70 119
e 70 121
e 70 124
e 70 130
e 70 135
e 70 136
e 70 138
e 70 140
e 70 144
e 71 77
e 71 84
e 71 89
e 71 93
e 71 100
e 71 103
e 71 104
e 71 105
e 71 106
e 71 107
e 71 111
e 71 114
e 71 123
e 71 127
e 71 134
e 71 138
e 71 139
e 71 143
e 71 148
e 72 74
e 72 76
e 72 78
e 72 80
e 72 82
e 72 83
e 72 84
e 72 90
e 72 91
e 72 94
e 72 101
e 72 102
e 72 105
e 72 113
e 72 116
e 72 119
e 72 125
e 72 128
e 72 131
e 72 133
e 72 135
e 72 139
e 72 140
e 72 142
e 73 75
e 73 76
e 73 77
e 73 80
e 73 82
e 73 85
e 73 86
e 73 87
e 73 90
e 73 91
e 73 94
e 73 98
e 73 99
e 73 102
e 73 103
e 73 109
e 73 111
e 73 112
e 73 116
e 73 118
e 73 129
e 73 132
e 73 133
e 73 134
e 73 136
e 73 138
e 73 139
e 73 143
e 73 147
e 73 149
e 74 79
e 74 80
e 74 82
e 74 86
e 74 99
e 74 102
e 74 104
e 74 106
e 74 108
e 74 110
e 74 111
e 74 113
e 74 114
e 74 115
e 74 118
e 74 124
e 74 125
e 74 128
e 74 134
e 74 137
e 74 140
e 74 145
e 74 146
e 74 147
e 74 150
e 75 77
e 75 78
e 75 81
e 75 82
e 75 84
e 75 89
e 75 90
e 75 97
e 75 98
e 75 99
e 75 115
e 75 119
e 75 121
e 75 127
e 75 128
e 75 129
e 75 131
e 75 135
e 75 150
e 76 81
e 76 82
e 76 86
e 76 90
e 76 93
e 76 95
e 76 96
e 76 97
e 76 99
e 76 103
e 76 106
e 76 109
e 76 111
e 76 112
e 76 116
e 76 118
e 76 119
e 76 121
e 76 124
e 76 128
e 76 130
e 76 131
e 76 136
e 76 142
e 76 145
e 76 146
e 76 148
e 76 149
e 77 84
e 77 85
e 77 86
e 77 87
e 77 88
e 77 94
e 77 99
e 77 105
e 77 108
e 77 110
e 77 113
e 77 114
e 77 115
e 77 121
e 77 124
e 77 125
e 77 127
e 77 131
e 77 137
e 77 139
e 77 148
e 77 149
e 77 150
e 78 79
e 78 81
e 78 83
e 78 87
e 78 89
e 78 92
e 78 95
e 78 98
e 78 99
e 78 100
e 78 101
e 78 102
e 78 103
e 78 105
e 78 107
e 78 108
e 78 111
e 78 112
e 78 113
e 78 120
e 78 123
e 78 130
e 78 133
e 78 146
e 78 150
e 79 80
e 79 82
e 79 90
e 79 92
e 79 96
e 79 98
e 79 100
e 79 101
e 79 104
e 79 111
e 79 116
e 79 126
e 79 127
e 79 129
e 79 133
e 79 136
e 79 138
e 79 139
e 79 143
e 79 149
e 80 82
e 80 84
e 80 91
e 80 92
e 80 95
e 80 96
e 80 97
e 80 107
e 80 110
e 80 114
e 80 115
e 80 123
e 80 126
e 80 127
e 80 135
e 80 136
e 80 138
e 80 147
e 80 150
e 81 84
e 81 86
e 81 88
e 81 90
e 81 96
e 81 97
e 81 111
e 81 112
e 81 114
e 81 123
e 81 129
e 81 130
e 81 131
e 81 133
e 81 136
e 81 139
e 81 145
e 82 83
e 82 84
e 82 86
e 82 87
e 82 91
e 82 92
e 82 96
e 82 99
e 82 108
e 82 115
e 82 116
e 82 117
e 82 121
e 82 124
e 82 126
e 82 133
e 82 136
e 82 142
e 82 146
e 83 90
e 83 91
e 83 93
e 83 99
e 83 101
e 83 104
e 83 105
e 83 107
e 83 108
e 83 112
e 83 114
e 83 121
e 83 124
e 83 127
e 83 130
e 83 137
e 83 139
e 83 147
e 83 150
e 84 88
e 84 89
e 84 90
e 84 92
e 84 94
e 84 96
e 84 98
e 84 102
e 84 105
e 84 112
e 84 124
e 84 127
e 84 129
e 84 131
e 84 134
e 84 137
e 84 141
e 84 144
e 84 147
e 85 89
e 85 90
e 85 94
e 85 96
e 85 103
e 85 108
e 85 113
e 85 115
e 85 116
e 85 119
e 85 120
e 85 122
e 85 129
e 85 132
e 85 134
e 85 137
e 85 140
e 85 146
e 85 150
e 86 94
e 86 95
e 86 100
e 86 102
e 86 103
e 86 109
e 86 110
e 86 111
e 86 114
e 86 115
e 86 116
e 86 122
e 86 123
e 86 126
e 86 130
e 86 133
e 86 137
e 86 138
e 86 140
e 86 144
e 86 146
e 86 149
e 87 90
e 87 94
e 87 96
e 87 106
e 87 107
e 87 109
e 87 110
e 87 111
e 87 116
e 87 119
e 87 121
e 87 124
e 87 127
e 87 128
e 87 129
e 87 130
e 87 134
e 87 142
e 87 148
e 88 91
e 88 99
e 88 100
e 88 102
e 88 103
e 88 104
e 88 107
e 88 108
e 88 109
e 88 110
e 88 113
e 88 115
e 88 118
e 88 121
e 88 122
e 88 123
e 88 126
e 88 127
e 88 130
e 88 135
e 88 142
e 88 144
e 88 148
e 89 92
e 89 96
e 89 97
e 89 101
e 89 103
e 89 107
e 89 116
e 89 117
e 89 118
e 89 124
e 89 126
e 89 129
e 89 131
e 89 132
e 89 134
e 89 135
e 89 141
e 89 142
e 89 144
e 90 97
e 90 98
e 90 104
e 90 110
e 90 113
e 90 116
e 90 120
e 90 121
e 90 126
e 90 128
e 90 133
e 90 137
e 90 139
e 90 144
e 90 147
e 90 150
e 91 100
e 91 102
e 91 104
e 91 108
e 91 109
e 91 112
e 91 114
e 91 115
e 91 119
e 91 122
e 91 124
e 91 127
e 91 129
e 91 130
e 91 131
e 91 137
e 91 150
e 92 94
e 92 95
e 92 100
e 92 102
e 92 103
e 92 104
e 92 109
e 92 116
e 92 117
e 92 121
e 92 124
e 92 125
e 92 133
e 92 134
e 92 136
e 92 146
e 93 96
e 93 104
e 93 106
e 93 108
e 93 111
e 93 118
e 93 120
e 93 122
e 93 125
e 93 131
e 93 134
e 93 137
e 93 140
e 94 96
e 94 98
e 94 99
e 94 102
e 94 109
e 94 111
e 94 118
e 94 123
e 94 124
e 94 130
e 94 134
e 94 137
e 94 138
e 94 139
e 94 141
e 94 143
e 94 148
e 95 97
e 95 101
e 95 102
e 95 108
e 95 113
e 95 114
e 95 115
e 95 117
e 95 118
e 95 121
e 95 123
e 95 124
e 95 137
e 95 141
e 95 142
e 95 146
e 95 148
e 96 111
e 96 112
e 96 114
e 96 122
e 96 123
e 96 124
e 96 126
e 96 129
e 96 130
e 96 136
e 96 142
e 96 145
e 96 150
e 97 98
e 97 99
e 97 103
e 97 104
e 97 105
e 97 106
e 97 107
e 97 108
e 97 114
e 97 118
e 97 119
e 97 122
e 97 129
e 97 135
e 97 146
e 97 148
e 97 149
e 98 99
e 98 100
e 98 101
e 98 104
e 98 109
e 98 114
e 98 117
e 98 118
e 98 130
e 98 138
e 98 143
e 98 145
e 98 147
e 99 100
e 99 102
e 99 103
e 99 106
e 99 107
e 99 109
e 99 118
e 99 120
e 99 123
e 99 124
e 99 149
e 100 110
e 100 115
e 100 118
e 100 122
e 100 126
e 100 127
e 100 129
e 100 130
e 100 131
e 100 133
e 100 135
e 100 149
e 101 108
e 101 109
e 101 115
e 101 123
e 101 125
e 101 130
e 101 142
e 101 145
e 101 146
e 102 109
e 102 110
e 102 112
e 102 114
e 102 118
e 102 120
e 102 128
e 102 132
e 102 133
e 102 135
e 102 136
e 102 137
e 102 138
e 102 139
e 102 141
e 102 146
e 102 148
e 102 150
e 103 105
e 103 108
e 103 109
e 103 120
e 103 121
e 103 133
e 103 143
e 103 147
e 104 106
e 104 107
e 104 113
e 104 115
e 104 116
e 104 117
e 104 128
e 104 129
e 104 130
e 104 137
e 104 139
e 104 140
e 104 143
e 104 145
e 104 146
e 104 147
e 104 150
e 105 107
e 105 114
e 105 115
e 105 119
e 105 120
e 105 127
e 105 129
e 105 130
e 105 134
e 105 137
e 105 140
e 105 142
e 105 143
e 105 144
e 105 148
e 105 149
e 106 111
e 106 114
e 106 115
e 106 120
e 106 127
e 106 128
e 106 133
e 106 136
e 106 137
e 106 138
e 106 141
e 106 142
e 106 143
e 106 145
e 106 150
e 107 112
e 107 114
e 107 117
e 107 120
e 107 123
e 107 127
e 107 129
e 107 131
e 107 132
e 107 133
e 107 137
e 107 138
e 107 142
e 107 143
e 107 145
e 107 147
e 107 148
e 107 150
e 108 111
e 108 112
e 108 113
e 108 119
e 108 122
e 108 124
e 108 125
e 108 126
e 108 128
e 108 130
e 108 135
e 108 139
e 108 144
e 109 112
e 109 113
e 109 119
e 109 121
e 109 127
e 109 140
e 109 142
e 109 145
e 110 111
e 110 112
e 110 125
e 110 126
e 110 127
e 110 128
e 110 130
e 110 133
e 110 137
e 110 139
e 110 140
e 110 147
e 111 115
e 111 125
e 111 127
e 111 128
e 111 135
e 111 136
e 111 137
e 111 138
e 111 140
e 111 141
e 111 142
e 111 143
e 111 144
e 111 145
e 112 114
e 112 115
e 112 117
e 112 120
e 112 124
e 112 126
e 112 128
e 112 129
e 112 131
e 112 133
e 112 137
e 112 140
e 112 143
e 112 146
e 112 148
e 113 116
e 113 119
e 113 123
e 113 126
e 113 130
e 113 132
e 113 139
e 113 141
e 113 142
e 113 147
e 113 149
e 113 150
e 114 115
e 114 121
e 114 123
e 114 129
e 114 133
e 114 137
e 114 139
e 114 141
e 114 142
e 114 145
e 115 118
e 115 123
e 115 125
e 115 132
e 115 138
e 115 144
e 115 145
e 116 117
e 116 118
e 116 123
e 116 124
e 116 132
e 116 135
e 116 140
e 116 143
e 117 119
e 117 126
e 117 128
e 117 130
e 117 132
e 117 135
e 117 142
e 117 145
e 117 147
e 117 150
e 118 122
e 118 128
e 118 130
e 118 132
e 118 133
e 118 137
e 118 139
e 118 142
e 118 146
e 118 149
e 118 150
e 119 122
e 119 127
e 119 128
e 119 129
e 119 148
e 120 121
e 120 124
e 120 125
e 120 129
e 120 137
e 120 139
e 120 142
e 120 143
e 120 145
e 120 150
e 121 124
e 121 125
e 121 126
e 121 127
e 121 129
e 121 131
e 121 133
e 121 134
e 121 138
e 121 141
e 121 142
e 121 148
e 122 123
e 122 127
e 122 128
e 122 131
e 122 134
e 122 137
e 122 143
e 122 147
e 122 149
e 123 124
e 123 127
e 123 128
e 123 131
e 123 132
e 123 134
e 123 135
e 123 136
e 123 137
e 123 140
e 123 149
e 124 139
e 124 142
e 124 145
e 124 150
e 125 128
e 125 132
e 125 134
e 125 139
e 125 141
e 125 143
e 125 150
e 126 131
e 126 132
e 126 134
e 126 138
e 126 139
e 126 142
e 126 144
e 126 145
e 126 147
e 126 150
e 127 131
e 127 135
e 127 136
e 127 140
e 127 141
e 127 146
e 127 148
e 127 149
e 128 130
e 128 131
e 128 132
e 128 135
e 128 137
e 128 139
e 128 143
e 128 146
e 128 147
e 129 130
e 129 131
e 129 135
e 129 136
e 129 143
e 129 145
e 129 149
e 129 150
e 130 131
e 130 135
e 130 136
e 130 140
e 130 144
e 130 149
e 131 133
e 131 135
e 131 137
e 131 141
e 131 144
e 132 135
e 132 139
e 132 141
e 132 145
e 132 148
e 132 150
e 133 137
e 133 140
e 133 145
e 133 147
e 134 136
e 134 139
e 134 143
e 134 145
e 134 150
e 135 137
e 135 138
e 135 140
e 135 141
e 135 143
e 135 144
e 135 146
e 136 138
e 136 139
e 136 140
e 136 141
e 136 142
e 136 147
e 136 149
e 136 150
e 137 142
e 137 143
e 137 145
e 138 141
e 138 143
e 138 144
e 138 148
e 139 141
e 139 146
e 139 148
e 140 144
e 140 146
e 141 146
e 141 148
e 142 144
e 142 146
e 142 147
e 142 148
e 142 149
e 143 146
e 143 147
e 143 149
e 144 148
e 144 149
e 146 147
e 147 148
e 148 149
e 149 150
